Read MPS format model from file dat/rmp/4node-base_2048_10.mps
Reading time = 0.07 seconds
: 2108 rows, 6290 columns, 208218 nonzeros
Gurobi Optimizer version 9.0.0 build v9.0.0rc2 (linux64)
Optimize a model with 2108 rows, 6290 columns and 208218 nonzeros
Model fingerprint: 0x61d4d4c9
Coefficient statistics:
  Matrix range     [3e-03, 2e+01]
  Objective range  [2e-01, 1e+04]
  Bounds range     [0e+00, 0e+00]
  RHS range        [1e+00, 8e+01]
Ordering time: 0.00s

Barrier statistics:
 AA' NZ     : 9.524e+04
 Factor NZ  : 1.188e+05 (roughly 4 MBytes of memory)
 Factor Ops : 7.656e+06 (less than 1 second per iteration)
 Threads    : 1

                  Objective                Residual
Iter       Primal          Dual         Primal    Dual     Compl     Time
   0   2.10906632e+07  0.00000000e+00  3.09e+02 2.40e+02  5.55e+04     0s
   1   5.89468892e+05 -1.22040876e+07  7.79e+00 9.81e+02  3.57e+03     0s
   2   7.82268979e+03 -3.04243081e+06  3.41e-03 1.41e+01  4.91e+02     0s
   3   2.02832832e+03 -6.29519838e+05  8.04e-04 2.57e+00  1.02e+02     0s
   4   1.09744919e+02 -9.05935575e+04  5.70e-05 3.24e-01  1.46e+01     0s
   5  -1.70112035e+02 -8.10562841e+03  1.13e-05 2.95e-02  1.27e+00     0s
   6  -2.11196426e+02 -8.22602254e+02  3.50e-08 1.89e-03  9.80e-02     0s
   7  -2.71327623e+02 -4.69263278e+02  1.85e-08 1.08e-04  3.15e-02     0s
   8  -3.08623909e+02 -3.85499430e+02  8.49e-09 8.15e-06  1.22e-02     0s
   9  -3.25678932e+02 -3.67344892e+02  7.46e-08 4.20e-06  6.63e-03     0s
  10  -3.35503269e+02 -3.58094625e+02  3.35e-07 5.30e-07  3.59e-03     0s
  11  -3.43344832e+02 -3.55260004e+02  1.84e-06 1.42e-07  1.89e-03     0s
  12  -3.45807309e+02 -3.54310510e+02  1.33e-06 3.36e-08  1.35e-03     0s
  13  -3.47614192e+02 -3.53081193e+02  8.25e-07 1.10e-08  8.69e-04     0s
  14  -3.49122504e+02 -3.52657739e+02  5.19e-07 7.28e-09  5.62e-04     0s
  15  -3.49317697e+02 -3.52511016e+02  4.86e-07 5.27e-09  5.08e-04     0s
  16  -3.50227028e+02 -3.52258100e+02  3.17e-07 1.58e-09  3.23e-04     0s
  17  -3.50723243e+02 -3.52149894e+02  2.23e-07 5.28e-10  2.27e-04     0s
  18  -3.50777618e+02 -3.52142026e+02  2.13e-07 4.89e-10  2.17e-04     0s
  19  -3.50976857e+02 -3.52116875e+02  1.79e-07 3.61e-11  1.81e-04     0s
  20  -3.51095195e+02 -3.52100465e+02  1.58e-07 1.46e-11  1.60e-04     0s
  21  -3.51156411e+02 -3.52095874e+02  1.48e-07 1.46e-11  1.49e-04     0s
  22  -3.51308844e+02 -3.52079851e+02  1.73e-07 1.46e-11  1.23e-04     0s
  23  -3.51503664e+02 -3.52073844e+02  2.22e-06 1.46e-11  9.07e-05     1s
  24  -3.51562606e+02 -3.52062681e+02  2.08e-06 1.46e-11  7.95e-05     1s
  25  -3.51562700e+02 -3.52062037e+02  6.23e-06 2.91e-11  7.94e-05     1s
  26  -3.51569787e+02 -3.52079210e+02  1.24e-05 1.46e-11  8.10e-05     1s
  27  -3.51626138e+02 -3.52066625e+02  1.22e-05 1.46e-11  7.00e-05     1s
  28  -3.51784054e+02 -3.52059720e+02  7.09e-06 1.46e-11  4.39e-05     1s
  29  -3.51860989e+02 -3.52052810e+02  5.27e-06 1.46e-11  3.05e-05     1s
  30  -3.51924929e+02 -3.52039401e+02  3.23e-06 2.91e-11  1.82e-05     1s
  31  -3.51940226e+02 -3.52037713e+02  2.77e-06 1.46e-11  1.55e-05     1s
  32  -3.52016214e+02 -3.52036936e+02  5.57e-07 2.91e-11  3.30e-06     1s
  33  -3.52016238e+02 -3.52036092e+02  7.44e-07 2.91e-11  3.16e-06     1s
  34  -3.52035198e+02 -3.52035847e+02  1.19e-07 2.91e-11  1.03e-07     1s
  35  -3.52035781e+02 -3.52035786e+02  5.63e-09 2.91e-11  6.74e-10     1s
  36  -3.52035784e+02 -3.52035784e+02  1.37e-09 1.46e-11  2.45e-15     1s

Barrier solved model in 36 iterations and 0.76 seconds
Optimal objective -3.52035784e+02

Solve time: 0.758315992
Barrier iterations: 36
